# Solution for model r10_t27_m9_2 Batch Number: 1
# Finished Task: 27 / 27
# Makespan: 693.0, Total Distance: 271.0, Total Time: 27.2358
# R O S F Batch
0 0 19 0.0 0.0 -1
1 1 23 0.0 0.0 -1
2 2 24 0.0 0.0 -1
3 3 32 0.0 0.0 -1
4 4 14 0.0 0.0 -1
5 5 10 0.0 0.0 -1
6 6 35 0.0 0.0 -1
7 7 20 0.0 0.0 -1
8 8 29 0.0 0.0 -1
9 9 26 0.0 0.0 -1
10 5 28 55.0 83.0 0
11 4 -1 619.0 646.0 0
12 2 -1 259.0 295.0 0
13 5 -1 660.0 693.0 0
14 4 16 421.0 451.0 0
15 1 22 385.0 414.0 0
16 4 11 554.0 592.0 0
17 1 -1 550.0 581.0 0
18 0 30 455.0 484.0 0
19 0 18 418.0 439.0 0
20 7 27 484.0 513.0 0
21 1 25 486.0 509.0 0
22 1 21 431.0 467.0 0
23 1 15 237.0 271.0 0
24 2 12 221.0 259.0 0
25 1 17 517.0 540.0 0
26 9 -1 427.0 455.0 0
27 7 -1 521.0 554.0 0
28 5 13 637.0 660.0 0
29 8 34 523.0 561.0 0
30 0 -1 611.0 647.0 0
31 6 -1 598.0 636.0 0
32 3 33 422.0 447.0 0
33 3 36 623.0 651.0 0
34 8 -1 561.0 587.0 0
35 6 31 391.0 427.0 0
36 3 -1 663.0 693.0 0
